multiobj/instances/uniform/Ter.5.4.0.80.2.in
5 4
0 468 183 274 334 
468 0 166 343 169 
183 166 0 751 345 
274 343 751 0 397 
334 169 345 397 0 
0 413 545 846 605 
413 0 650 329 848 
545 650 0 982 818 
846 329 982 0 473 
605 848 818 473 0 
0 381 583 735 692 
381 0 533 357 881 
583 533 0 833 950 
735 357 833 0 482 
692 881 950 482 0 
0 472 629 696 472 
472 0 731 279 899 
629 731 0 969 589 
696 279 969 0 533 
472 899 589 533 0 
0 601 392 915 548 
601 0 711 163 879 
392 711 0 976 848 
915 163 976 0 533 
548 879 848 533 0 
