multiobj/solutions/Ter.5.4.0.80.2.out
4 4
0 3 1 2 4 
3992468 4017344 3940322 3806138 
2 3 4 1 0 
4026244 3990022 4031100 4230814 
4 2 0 3 1 
4167100 4169940 3891038 4079374 
4 3 1 2 0 
4169564 4195782 3864172 4134206 
